1138.0 13633.0 3122.0 
1140.0 13641.0 3097.0 
1140.0 13641.0 3097.0 
1138.0 13540.0 3147.0 
1142.0 13602.0 3094.0 
1198.0 13162.0 2785.0 
1138.0 13633.0 3122.0 
1192.0 13207.0 2955.0 
1184.0 13094.0 3272.0 
1160.0 13347.0 3179.0 
1154.0 13447.0 3262.0 
1138.0 13415.0 3289.0 
1161.0 13165.0 3086.0 
1140.0 13587.0 3145.0 
1158.0 13488.0 3254.0 
1198.0 13092.0 2841.0 
1158.0 13488.0 3254.0 
1161.0 13379.0 3050.0 
1247.0 13088.0 2806.0 
1198.0 13092.0 2841.0 
1164.0 13335.0 3030.0 
1249.0 13095.0 2718.0 
1188.0 13245.0 3016.0 
